c --- [ banner ] -------------------------------------------------------------
c 
c CaDiCaL SAT Solver
c Copyright (c) 2016-2024
c A. Biere, M. Fleury, N. Froleyks, K. Fazekas, F. Pollitt, T. Faller
c JKU Linz, University of Freiburg, TU Wien
c 
c Version 2.1.3 f13d74439a5b5c963ac5b02d05ce93a8098018b8
c g++ (Gentoo 12.3.1_p20230526 p2) 12.3.1 20230526 -Wall -Wextra -O3 -DNDEBUG
c Thu Apr 10 08:26:21 EDT 2025 Linux narval2.narval.calcul.quebec 4.18.0-553.40.1.el8_10.x86_64 x86_64
c 
c --- [ parsing input ] ------------------------------------------------------
c 
c reading DIMACS file from 'cnfs//op_complete_45.cnf'
c opening file to read 'cnfs//op_complete_45.cnf'
c found 'p cnf 1980 86175' header
c parsed 86175 clauses in 0.03 seconds process time
c 
c --- [ options ] ------------------------------------------------------------
c 
c all options are set to their default value
c 
c --- [ solving ] ------------------------------------------------------------
c 
c time measured in process time since initialization
c 
c  seconds  reductions  redundant  irredundant
c         MB    restarts       trail     variables
c          level   conflicts       glue       remaining
c 
c *  0.03 13  0 0   0    0    0  0% 0 86175 1980 100%
c {  0.03 13  0 0   0    0    0  0% 0 86175 1980 100%
c -  0.03 13 85 1   1  437   28  9% 17 86175 1980 100%
c }  0.04 13 97 1  25 1019  173 11% 22 86175 1980 100%
c [  0.04 13  0 1  25 1019  173  0% 0 86175 1980 100%
c O  0.04 13 42 1  25 1020  173  9% 0 86175 1980 100%
c -  0.05 17 40 2  25 1043  178 16% 12 86175 1980 100%
c -  0.07 17 45 3  25 1945  725 14% 13 86175 1980 100%
c ]  0.09 17 46 3  26 3019 1402 14% 14 86175 1980 100%
c {  0.09 17 97 3  26 3019 1402 11% 22 86175 1980 100%
c F  0.09 17 99 3  26 3021 1404 11% 23 86175 1980 100%
c -  0.10 17 100 4  34 3146 1309 11% 23 86175 1980 100%
c -  0.12 17 126 5  55 4665 1326 17% 17 86175 1980 100%
c #  0.16 17 133 5  94 6027 1814 20% 16 86175 1980 100%
c -  0.17 17 131 6  95 6465 1508 21% 16 86175 1980 100%
c }  0.18 17 122 6 108 7040 1747 20% 16 86175 1980 100%
c [  0.18 17 46 6 108 7040 1747 14% 14 86175 1980 100%
c i  0.19 17 62 6 109 8356 2355 14% 14 86175 1978 100%
c -  0.20 20 61 7 109 8567 1677 14% 13 86044 1978 100%
c i  0.20 20 56 7 109 8946 1897 13% 13 86044 1974 100%
c 
c  seconds  reductions  redundant   irredundant
c         MB    restarts       trail      variables
c          level   conflicts       glue        remaining
c 
c ]  0.20 20 56 7 109 8968 1906 13% 13 86044 1951 99%
c 0  0.20 20 56 7 109 8968 1906 13% 13 86044 1951 99%
c 
c --- [ result ] -------------------------------------------------------------
c 
s UNSATISFIABLE
c 
c --- [ run-time profiling ] -------------------------------------------------
c 
c process time taken by individual solving procedures
c (percentage relative to process time for solving)
c 
c         0.15   83.61% search
c         0.08   46.63% stable
c         0.06   36.30% unstable
c         0.03   16.33% simplify
c         0.03   16.20% parse
c         0.02   10.36% ternary
c         0.00    2.81% probe
c         0.00    0.64% lucky
c   =================================
c         0.18   85.76% solve
c 
c last line shows process time for solving
c (percentage relative to total process time)
c 
c --- [ statistics ] ---------------------------------------------------------
c 
c chronological:              2340        26.09 %  of conflicts
c conflicts:                  8968     51023.83    per second
c decisions:                 39784    226352.83    per second
c fixed:                        29         1.46 %  of all variables
c learned:                    5378        59.97 %  per conflict
c learned_lits:             273873       100.00 %  learned literals
c minimized:                     0         0.00 %  learned literals
c shrunken:                  38024        13.88 %  learned literals
c minishrunken:               7576         2.77 %  learned literals
c otfs:                       1187        13.24 %  of conflict
c propagations:             276363         1.57 M  per second
c reduced:                    1644        18.33 %  per conflict
c rephased:                      3      2989.33    interval
c restarts:                    109        82.28    interval
c stabilizing:                   2        43.55 %  of conflicts
c subsumed:                   1516         1.66 %  of all clauses
c strengthened:               1149         1.26 %  of all clauses
c 
c seconds are measured in process time for solving
c 
c --- [ resources ] ----------------------------------------------------------
c 
c total process time since initialization:         0.21    seconds
c total real time since initialization:            0.28    seconds
c maximum resident set size of process:           20.59    MB
c 
c --- [ shutting down ] ------------------------------------------------------
c 
c exit 20
